# Solution for model r3_t27_m7_7
# Finished Task: 24 / 27
# Makespan: 939.0, Total Distance: 1103.0, Total Time: 1.4219
# R O S F
0 0 10 0.0 0.0
1 1 12 0.0 0.0
2 2 13 0.0 0.0
3 1 24 771.0 804.0
4 2 26 798.0 831.0
5 1 3 723.0 760.0
6 -1 -1 -1.0 -1.0
7 0 -1 841.0 863.0
8 -1 -1 -1.0 -1.0
9 2 23 411.0 450.0
10 0 15 340.0 365.0
11 -1 -1 -1.0 -1.0
12 1 17 189.0 221.0
13 2 9 277.0 313.0
14 0 7 766.0 800.0
15 0 18 540.0 576.0
16 2 4 744.0 776.0
17 1 27 367.0 401.0
18 0 22 642.0 662.0
19 1 29 608.0 631.0
20 2 21 599.0 630.0
21 2 25 647.0 676.0
22 0 28 686.0 723.0
23 2 20 552.0 576.0
24 1 -1 904.0 939.0
25 2 16 688.0 720.0
26 2 -1 849.0 871.0
27 1 19 507.0 542.0
28 0 14 723.0 754.0
29 1 5 655.0 679.0
